============================[ Problem Statistics ]=============================|                                                                             ||  Number of variables:          4242                                         ||  Number of clauses:           10210                                         ||  Parse time:                   0.60 s                                       ||                                                                             |============================[ Search Statistics ]==============================| Conflicts |          ORIGINAL         |          LEARNT          | Progress ||           |    Vars  Clauses Literals |    Limit  Clauses Lit/Cl |          |===============================================================================|       100 |    1591     6415   953666 |     2352      100     53 | 62.501 % ||       250 |    1591     6415   953666 |     2587      250     75 | 62.495 % |===============================================================================restarts              : 3conflicts             : 329            (361 /sec)decisions             : 591            (0.00 % random) (648 /sec)propagations          : 11908          (13057 /sec)conflict literals     : 26425          (94.67 % deleted)CPU time              : 0.912 sSATISFIABLE